c instance by G2
c solution = 1000011
c Known solution cost is 372 
p cnf 7 30
w 24 96 46 4 58 64 80
-4 6 -5 0
-5 -3 -1 0
4 7 2 0
-3 6 1 0
4 -2 7 0
-1 -3 -5 0
6 7 2 0
2 -4 -1 0
-5 4 -7 0
7 -2 6 0
6 -1 4 0
6 -4 7 0
-6 -2 5 0
-7 -5 -2 0
-5 -7 1 0
-1 -3 -5 0
7 1 -3 0
-3 6 5 0
-2 1 5 0
-3 5 4 0
2 -5 4 0
-4 -3 6 0
-3 5 -7 0
1 6 4 0
-7 2 1 0
-3 6 -4 0
-5 3 2 0
-5 -3 2 0
-1 2 7 0
-4 5 -1 0
